data/lp_files/pEFS/62_9.lp
\ Model foo
\ LP format - for model browsing. Use MPS format to capture full model detail.
Minimize
  z
Subject To
 allocateEach[1]: x[1,1] + x[2,1] + x[3,1] + x[4,1] = 1
 allocateEach[2]: x[1,2] + x[2,2] + x[3,2] + x[4,2] = 1
 allocateAllCash: cashProportion[1] + cashProportion[2] + cashProportion[3]
   + cashProportion[4] = 1
 findWorstP[1,2]: z + 0.4974876871797423 cashProportion[1]
   - 0.4974876871797423 cashProportion[2] + 0.1839211979503507 x[1,1]
   + 0.3185911148699069 x[1,2] - 0.1839211979503507 x[2,1]
   - 0.3185911148699069 x[2,2] >= 0
 findWorstP[1,3]: z + 0.4974876871797423 cashProportion[1]
   - 0.4974876871797423 cashProportion[3] + 0.1839211979503507 x[1,1]
   + 0.3185911148699069 x[1,2] - 0.1839211979503507 x[3,1]
   - 0.3185911148699069 x[3,2] >= 0
 findWorstP[1,4]: z + 0.4974876871797423 cashProportion[1]
   - 0.4974876871797423 cashProportion[4] + 0.1839211979503507 x[1,1]
   + 0.3185911148699069 x[1,2] - 0.1839211979503507 x[4,1]
   - 0.3185911148699069 x[4,2] >= 0
 findWorstP[2,1]: z - 0.4984547901505334 cashProportion[1]
   + 0.4984547901505334 cashProportion[2] - 0.1913567939387897 x[1,1]
   - 0.3101884159106769 x[1,2] + 0.1913567939387897 x[2,1]
   + 0.3101884159106769 x[2,2] >= 0
 findWorstP[2,3]: z + 0.4984547901505334 cashProportion[2]
   - 0.4984547901505334 cashProportion[3] + 0.1913567939387897 x[2,1]
   + 0.3101884159106769 x[2,2] - 0.1913567939387897 x[3,1]
   - 0.3101884159106769 x[3,2] >= 0
 findWorstP[2,4]: z + 0.4984547901505334 cashProportion[2]
   - 0.4984547901505334 cashProportion[4] + 0.1913567939387897 x[2,1]
   + 0.3101884159106769 x[2,2] - 0.1913567939387897 x[4,1]
   - 0.3101884159106769 x[4,2] >= 0
 findWorstP[3,1]: z - 0.4465282429113642 cashProportion[1]
   + 0.4465282429113642 cashProportion[3] - 0.2825630721143112 x[1,1]
   - 0.2709086849743246 x[1,2] + 0.2825630721143112 x[3,1]
   + 0.2709086849743246 x[3,2] >= 0
 findWorstP[3,2]: z - 0.4465282429113642 cashProportion[2]
   + 0.4465282429113642 cashProportion[3] - 0.2825630721143112 x[2,1]
   - 0.2709086849743246 x[2,2] + 0.2825630721143112 x[3,1]
   + 0.2709086849743246 x[3,2] >= 0
 findWorstP[3,4]: z + 0.4465282429113642 cashProportion[3]
   - 0.4465282429113642 cashProportion[4] + 0.2825630721143112 x[3,1]
   + 0.2709086849743246 x[3,2] - 0.2825630721143112 x[4,1]
   - 0.2709086849743246 x[4,2] >= 0
 findWorstP[4,1]: z - 0.4388467108439023 cashProportion[1]
   + 0.4388467108439023 cashProportion[4] - 0.2766050818449116 x[1,1]
   - 0.2845482073111862 x[1,2] + 0.2766050818449116 x[4,1]
   + 0.2845482073111862 x[4,2] >= 0
 findWorstP[4,2]: z - 0.4388467108439023 cashProportion[2]
   + 0.4388467108439023 cashProportion[4] - 0.2766050818449116 x[2,1]
   - 0.2845482073111862 x[2,2] + 0.2766050818449116 x[4,1]
   + 0.2845482073111862 x[4,2] >= 0
 findWorstP[4,3]: z - 0.4388467108439023 cashProportion[3]
   + 0.4388467108439023 cashProportion[4] - 0.2766050818449116 x[3,1]
   - 0.2845482073111862 x[3,2] + 0.2766050818449116 x[4,1]
   + 0.2845482073111862 x[4,2] >= 0
Bounds
 z <= 1
 -infinity <= cashProportion[1] <= 1
 -infinity <= cashProportion[2] <= 1
 -infinity <= cashProportion[3] <= 1
 -infinity <= cashProportion[4] <= 1
Binaries
 x[1,1] x[1,2] x[2,1] x[2,2] x[3,1] x[3,2] x[4,1] x[4,2]
End
